% Auto-generated by scripts/generate_dzn.py
% problem_type   = nonogram
% instance       = nonogram_23
% source_json    = instances_json/0_low_blowup/nonogram_23.json
% blowup         = 1.0503524672708964
% representation = DFA

mode = 0;

height = 25;
width = 25;
Q = 25;
S = 2;
row_q0 = [1, 1, 1, 1, 1, 1, 1, 1, 1, 1, 1, 1, 1, 1, 1, 1, 1, 1, 1, 1, 1, 1, 1, 1, 1];
row_F = [{19}, {17}, {18}, {17}, {22}, {24}, {23}, {20}, {19}, {18}, {20}, {22}, {24}, {22}, {21}, {22}, {22}, {17}, {22}, {20}, {18}, {14}, {16}, {19}, {22}];
col_q0 = [1, 1, 1, 1, 1, 1, 1, 1, 1, 1, 1, 1, 1, 1, 1, 1, 1, 1, 1, 1, 1, 1, 1, 1, 1];
col_F = [{19}, {17}, {24}, {16}, {20}, {20}, {19}, {18}, {20}, {20}, {16}, {17}, {19}, {20}, {20}, {22}, {22}, {20}, {24}, {20}, {24}, {20}, {21}, {16}, {21}];
row_d_dfa = array3d(1..25, 1..25, 1..2, [
  % k = 1
    1, 2,
    20, 3,
    20, 4,
    5, 20,
    5, 6,
    7, 20,
    7, 8,
    9, 20,
    9, 10,
    20, 11,
    20, 12,
    13, 20,
    13, 14,
    20, 15,
    20, 16,
    17, 20,
    17, 18,
    20, 19,
    19, 20,
    20, 20,
    0, 0,
    0, 0,
    0, 0,
    0, 0,
    0, 0,

  % k = 2
    1, 2,
    3, 18,
    3, 4,
    18, 5,
    6, 18,
    6, 7,
    8, 18,
    8, 9,
    18, 10,
    18, 11,
    12, 18,
    12, 13,
    14, 18,
    14, 15,
    16, 18,
    16, 17,
    17, 18,
    18, 18,
    0, 0,
    0, 0,
    0, 0,
    0, 0,
    0, 0,
    0, 0,
    0, 0,

  % k = 3
    1, 2,
    19, 3,
    19, 4,
    5, 19,
    5, 6,
    19, 7,
    8, 19,
    8, 9,
    19, 10,
    11, 19,
    11, 12,
    13, 19,
    13, 14,
    19, 15,
    19, 16,
    17, 19,
    17, 18,
    18, 19,
    19, 19,
    0, 0,
    0, 0,
    0, 0,
    0, 0,
    0, 0,
    0, 0,

  % k = 4
    1, 2,
    3, 18,
    3, 4,
    18, 5,
    6, 18,
    6, 7,
    18, 8,
    18, 9,
    18, 10,
    18, 11,
    18, 12,
    13, 18,
    13, 14,
    18, 15,
    16, 18,
    16, 17,
    17, 18,
    18, 18,
    0, 0,
    0, 0,
    0, 0,
    0, 0,
    0, 0,
    0, 0,
    0, 0,

  % k = 5
    1, 2,
    23, 3,
    23, 4,
    5, 23,
    5, 6,
    23, 7,
    23, 8,
    23, 9,
    23, 10,
    11, 23,
    11, 12,
    23, 13,
    23, 14,
    15, 23,
    15, 16,
    17, 23,
    17, 18,
    23, 19,
    20, 23,
    20, 21,
    23, 22,
    22, 23,
    23, 23,
    0, 0,
    0, 0,

  % k = 6
    1, 2,
    3, 25,
    3, 4,
    25, 5,
    25, 6,
    25, 7,
    25, 8,
    9, 25,
    9, 10,
    11, 25,
    11, 12,
    13, 25,
    13, 14,
    15, 25,
    15, 16,
    17, 25,
    17, 18,
    19, 25,
    19, 20,
    25, 21,
    25, 22,
    25, 23,
    25, 24,
    24, 25,
    25, 25,

  % k = 7
    1, 2,
    24, 3,
    24, 4,
    24, 5,
    24, 6,
    24, 7,
    8, 24,
    8, 9,
    24, 10,
    24, 11,
    12, 24,
    12, 13,
    24, 14,
    15, 24,
    15, 16,
    17, 24,
    17, 18,
    24, 19,
    20, 24,
    20, 21,
    24, 22,
    24, 23,
    23, 24,
    24, 24,
    0, 0,

  % k = 8
    1, 2,
    21, 3,
    21, 4,
    5, 21,
    5, 6,
    21, 7,
    8, 21,
    8, 9,
    21, 10,
    11, 21,
    11, 12,
    13, 21,
    13, 14,
    15, 21,
    15, 16,
    17, 21,
    17, 18,
    19, 21,
    19, 20,
    20, 21,
    21, 21,
    0, 0,
    0, 0,
    0, 0,
    0, 0,

  % k = 9
    1, 2,
    20, 3,
    4, 20,
    4, 5,
    6, 20,
    6, 7,
    20, 8,
    9, 20,
    9, 10,
    11, 20,
    11, 12,
    13, 20,
    13, 14,
    15, 20,
    15, 16,
    20, 17,
    18, 20,
    18, 19,
    19, 20,
    20, 20,
    0, 0,
    0, 0,
    0, 0,
    0, 0,
    0, 0,

  % k = 10
    1, 2,
    19, 3,
    4, 19,
    4, 5,
    6, 19,
    6, 7,
    19, 8,
    9, 19,
    9, 10,
    11, 19,
    11, 12,
    13, 19,
    13, 14,
    19, 15,
    19, 16,
    17, 19,
    17, 18,
    18, 19,
    19, 19,
    0, 0,
    0, 0,
    0, 0,
    0, 0,
    0, 0,
    0, 0,

  % k = 11
    1, 2,
    3, 21,
    3, 4,
    5, 21,
    5, 6,
    21, 7,
    21, 8,
    9, 21,
    9, 10,
    21, 11,
    21, 12,
    13, 21,
    13, 14,
    21, 15,
    16, 21,
    16, 17,
    18, 21,
    18, 19,
    21, 20,
    20, 21,
    21, 21,
    0, 0,
    0, 0,
    0, 0,
    0, 0,

  % k = 12
    1, 2,
    23, 3,
    23, 4,
    23, 5,
    6, 23,
    6, 7,
    23, 8,
    9, 23,
    9, 10,
    11, 23,
    11, 12,
    23, 13,
    23, 14,
    23, 15,
    23, 16,
    17, 23,
    17, 18,
    19, 23,
    19, 20,
    23, 21,
    23, 22,
    22, 23,
    23, 23,
    0, 0,
    0, 0,

  % k = 13
    1, 2,
    3, 25,
    3, 4,
    25, 5,
    6, 25,
    6, 7,
    25, 8,
    25, 9,
    10, 25,
    10, 11,
    12, 25,
    12, 13,
    25, 14,
    25, 15,
    25, 16,
    25, 17,
    25, 18,
    25, 19,
    25, 20,
    25, 21,
    25, 22,
    23, 25,
    23, 24,
    24, 25,
    25, 25,

  % k = 14
    1, 2,
    3, 23,
    3, 4,
    5, 23,
    5, 6,
    23, 7,
    8, 23,
    8, 9,
    10, 23,
    10, 11,
    12, 23,
    12, 13,
    14, 23,
    14, 15,
    16, 23,
    16, 17,
    23, 18,
    23, 19,
    23, 20,
    21, 23,
    21, 22,
    22, 23,
    23, 23,
    0, 0,
    0, 0,

  % k = 15
    1, 2,
    3, 22,
    3, 4,
    22, 5,
    6, 22,
    6, 7,
    8, 22,
    8, 9,
    22, 10,
    11, 22,
    11, 12,
    22, 13,
    14, 22,
    14, 15,
    22, 16,
    22, 17,
    22, 18,
    19, 22,
    19, 20,
    22, 21,
    21, 22,
    22, 22,
    0, 0,
    0, 0,
    0, 0,

  % k = 16
    1, 2,
    3, 23,
    3, 4,
    5, 23,
    5, 6,
    23, 7,
    8, 23,
    8, 9,
    10, 23,
    10, 11,
    12, 23,
    12, 13,
    23, 14,
    15, 23,
    15, 16,
    23, 17,
    23, 18,
    23, 19,
    23, 20,
    21, 23,
    21, 22,
    22, 23,
    23, 23,
    0, 0,
    0, 0,

  % k = 17
    1, 2,
    23, 3,
    4, 23,
    4, 5,
    6, 23,
    6, 7,
    23, 8,
    23, 9,
    10, 23,
    10, 11,
    23, 12,
    23, 13,
    23, 14,
    15, 23,
    15, 16,
    17, 23,
    17, 18,
    23, 19,
    23, 20,
    21, 23,
    21, 22,
    22, 23,
    23, 23,
    0, 0,
    0, 0,

  % k = 18
    1, 2,
    3, 18,
    3, 4,
    5, 18,
    5, 6,
    7, 18,
    7, 8,
    9, 18,
    9, 10,
    11, 18,
    11, 12,
    18, 13,
    18, 14,
    18, 15,
    18, 16,
    18, 17,
    17, 18,
    18, 18,
    0, 0,
    0, 0,
    0, 0,
    0, 0,
    0, 0,
    0, 0,
    0, 0,

  % k = 19
    1, 2,
    23, 3,
    23, 4,
    5, 23,
    5, 6,
    7, 23,
    7, 8,
    23, 9,
    23, 10,
    23, 11,
    23, 12,
    23, 13,
    23, 14,
    15, 23,
    15, 16,
    23, 17,
    23, 18,
    19, 23,
    19, 20,
    21, 23,
    21, 22,
    22, 23,
    23, 23,
    0, 0,
    0, 0,

  % k = 20
    1, 2,
    3, 21,
    3, 4,
    21, 5,
    21, 6,
    21, 7,
    8, 21,
    8, 9,
    21, 10,
    21, 11,
    12, 21,
    12, 13,
    14, 21,
    14, 15,
    21, 16,
    17, 21,
    17, 18,
    19, 21,
    19, 20,
    20, 21,
    21, 21,
    0, 0,
    0, 0,
    0, 0,
    0, 0,

  % k = 21
    1, 2,
    3, 19,
    3, 4,
    5, 19,
    5, 6,
    7, 19,
    7, 8,
    9, 19,
    9, 10,
    11, 19,
    11, 12,
    13, 19,
    13, 14,
    19, 15,
    19, 16,
    17, 19,
    17, 18,
    18, 19,
    19, 19,
    0, 0,
    0, 0,
    0, 0,
    0, 0,
    0, 0,
    0, 0,

  % k = 22
    1, 2,
    3, 15,
    3, 4,
    15, 5,
    15, 6,
    7, 15,
    7, 8,
    15, 9,
    15, 10,
    11, 15,
    11, 12,
    13, 15,
    13, 14,
    14, 15,
    15, 15,
    0, 0,
    0, 0,
    0, 0,
    0, 0,
    0, 0,
    0, 0,
    0, 0,
    0, 0,
    0, 0,
    0, 0,

  % k = 23
    1, 2,
    3, 17,
    3, 4,
    5, 17,
    5, 6,
    17, 7,
    8, 17,
    8, 9,
    10, 17,
    10, 11,
    17, 12,
    17, 13,
    17, 14,
    15, 17,
    15, 16,
    16, 17,
    17, 17,
    0, 0,
    0, 0,
    0, 0,
    0, 0,
    0, 0,
    0, 0,
    0, 0,
    0, 0,

  % k = 24
    1, 2,
    3, 20,
    3, 4,
    5, 20,
    5, 6,
    7, 20,
    7, 8,
    9, 20,
    9, 10,
    11, 20,
    11, 12,
    20, 13,
    20, 14,
    15, 20,
    15, 16,
    17, 20,
    17, 18,
    20, 19,
    19, 20,
    20, 20,
    0, 0,
    0, 0,
    0, 0,
    0, 0,
    0, 0,

  % k = 25
    1, 2,
    3, 23,
    3, 4,
    23, 5,
    23, 6,
    23, 7,
    8, 23,
    8, 9,
    23, 10,
    11, 23,
    11, 12,
    13, 23,
    13, 14,
    23, 15,
    23, 16,
    23, 17,
    23, 18,
    19, 23,
    19, 20,
    23, 21,
    23, 22,
    22, 23,
    23, 23,
    0, 0,
    0, 0
]);
row_d_nfa = array3d(1..25, 1..25, 1..2, [
  % k = 1
    {}, {},
    {}, {},
    {}, {},
    {}, {},
    {}, {},
    {}, {},
    {}, {},
    {}, {},
    {}, {},
    {}, {},
    {}, {},
    {}, {},
    {}, {},
    {}, {},
    {}, {},
    {}, {},
    {}, {},
    {}, {},
    {}, {},
    {}, {},
    {}, {},
    {}, {},
    {}, {},
    {}, {},
    {}, {},

  % k = 2
    {}, {},
    {}, {},
    {}, {},
    {}, {},
    {}, {},
    {}, {},
    {}, {},
    {}, {},
    {}, {},
    {}, {},
    {}, {},
    {}, {},
    {}, {},
    {}, {},
    {}, {},
    {}, {},
    {}, {},
    {}, {},
    {}, {},
    {}, {},
    {}, {},
    {}, {},
    {}, {},
    {}, {},
    {}, {},

  % k = 3
    {}, {},
    {}, {},
    {}, {},
    {}, {},
    {}, {},
    {}, {},
    {}, {},
    {}, {},
    {}, {},
    {}, {},
    {}, {},
    {}, {},
    {}, {},
    {}, {},
    {}, {},
    {}, {},
    {}, {},
    {}, {},
    {}, {},
    {}, {},
    {}, {},
    {}, {},
    {}, {},
    {}, {},
    {}, {},

  % k = 4
    {}, {},
    {}, {},
    {}, {},
    {}, {},
    {}, {},
    {}, {},
    {}, {},
    {}, {},
    {}, {},
    {}, {},
    {}, {},
    {}, {},
    {}, {},
    {}, {},
    {}, {},
    {}, {},
    {}, {},
    {}, {},
    {}, {},
    {}, {},
    {}, {},
    {}, {},
    {}, {},
    {}, {},
    {}, {},

  % k = 5
    {}, {},
    {}, {},
    {}, {},
    {}, {},
    {}, {},
    {}, {},
    {}, {},
    {}, {},
    {}, {},
    {}, {},
    {}, {},
    {}, {},
    {}, {},
    {}, {},
    {}, {},
    {}, {},
    {}, {},
    {}, {},
    {}, {},
    {}, {},
    {}, {},
    {}, {},
    {}, {},
    {}, {},
    {}, {},

  % k = 6
    {}, {},
    {}, {},
    {}, {},
    {}, {},
    {}, {},
    {}, {},
    {}, {},
    {}, {},
    {}, {},
    {}, {},
    {}, {},
    {}, {},
    {}, {},
    {}, {},
    {}, {},
    {}, {},
    {}, {},
    {}, {},
    {}, {},
    {}, {},
    {}, {},
    {}, {},
    {}, {},
    {}, {},
    {}, {},

  % k = 7
    {}, {},
    {}, {},
    {}, {},
    {}, {},
    {}, {},
    {}, {},
    {}, {},
    {}, {},
    {}, {},
    {}, {},
    {}, {},
    {}, {},
    {}, {},
    {}, {},
    {}, {},
    {}, {},
    {}, {},
    {}, {},
    {}, {},
    {}, {},
    {}, {},
    {}, {},
    {}, {},
    {}, {},
    {}, {},

  % k = 8
    {}, {},
    {}, {},
    {}, {},
    {}, {},
    {}, {},
    {}, {},
    {}, {},
    {}, {},
    {}, {},
    {}, {},
    {}, {},
    {}, {},
    {}, {},
    {}, {},
    {}, {},
    {}, {},
    {}, {},
    {}, {},
    {}, {},
    {}, {},
    {}, {},
    {}, {},
    {}, {},
    {}, {},
    {}, {},

  % k = 9
    {}, {},
    {}, {},
    {}, {},
    {}, {},
    {}, {},
    {}, {},
    {}, {},
    {}, {},
    {}, {},
    {}, {},
    {}, {},
    {}, {},
    {}, {},
    {}, {},
    {}, {},
    {}, {},
    {}, {},
    {}, {},
    {}, {},
    {}, {},
    {}, {},
    {}, {},
    {}, {},
    {}, {},
    {}, {},

  % k = 10
    {}, {},
    {}, {},
    {}, {},
    {}, {},
    {}, {},
    {}, {},
    {}, {},
    {}, {},
    {}, {},
    {}, {},
    {}, {},
    {}, {},
    {}, {},
    {}, {},
    {}, {},
    {}, {},
    {}, {},
    {}, {},
    {}, {},
    {}, {},
    {}, {},
    {}, {},
    {}, {},
    {}, {},
    {}, {},

  % k = 11
    {}, {},
    {}, {},
    {}, {},
    {}, {},
    {}, {},
    {}, {},
    {}, {},
    {}, {},
    {}, {},
    {}, {},
    {}, {},
    {}, {},
    {}, {},
    {}, {},
    {}, {},
    {}, {},
    {}, {},
    {}, {},
    {}, {},
    {}, {},
    {}, {},
    {}, {},
    {}, {},
    {}, {},
    {}, {},

  % k = 12
    {}, {},
    {}, {},
    {}, {},
    {}, {},
    {}, {},
    {}, {},
    {}, {},
    {}, {},
    {}, {},
    {}, {},
    {}, {},
    {}, {},
    {}, {},
    {}, {},
    {}, {},
    {}, {},
    {}, {},
    {}, {},
    {}, {},
    {}, {},
    {}, {},
    {}, {},
    {}, {},
    {}, {},
    {}, {},

  % k = 13
    {}, {},
    {}, {},
    {}, {},
    {}, {},
    {}, {},
    {}, {},
    {}, {},
    {}, {},
    {}, {},
    {}, {},
    {}, {},
    {}, {},
    {}, {},
    {}, {},
    {}, {},
    {}, {},
    {}, {},
    {}, {},
    {}, {},
    {}, {},
    {}, {},
    {}, {},
    {}, {},
    {}, {},
    {}, {},

  % k = 14
    {}, {},
    {}, {},
    {}, {},
    {}, {},
    {}, {},
    {}, {},
    {}, {},
    {}, {},
    {}, {},
    {}, {},
    {}, {},
    {}, {},
    {}, {},
    {}, {},
    {}, {},
    {}, {},
    {}, {},
    {}, {},
    {}, {},
    {}, {},
    {}, {},
    {}, {},
    {}, {},
    {}, {},
    {}, {},

  % k = 15
    {}, {},
    {}, {},
    {}, {},
    {}, {},
    {}, {},
    {}, {},
    {}, {},
    {}, {},
    {}, {},
    {}, {},
    {}, {},
    {}, {},
    {}, {},
    {}, {},
    {}, {},
    {}, {},
    {}, {},
    {}, {},
    {}, {},
    {}, {},
    {}, {},
    {}, {},
    {}, {},
    {}, {},
    {}, {},

  % k = 16
    {}, {},
    {}, {},
    {}, {},
    {}, {},
    {}, {},
    {}, {},
    {}, {},
    {}, {},
    {}, {},
    {}, {},
    {}, {},
    {}, {},
    {}, {},
    {}, {},
    {}, {},
    {}, {},
    {}, {},
    {}, {},
    {}, {},
    {}, {},
    {}, {},
    {}, {},
    {}, {},
    {}, {},
    {}, {},

  % k = 17
    {}, {},
    {}, {},
    {}, {},
    {}, {},
    {}, {},
    {}, {},
    {}, {},
    {}, {},
    {}, {},
    {}, {},
    {}, {},
    {}, {},
    {}, {},
    {}, {},
    {}, {},
    {}, {},
    {}, {},
    {}, {},
    {}, {},
    {}, {},
    {}, {},
    {}, {},
    {}, {},
    {}, {},
    {}, {},

  % k = 18
    {}, {},
    {}, {},
    {}, {},
    {}, {},
    {}, {},
    {}, {},
    {}, {},
    {}, {},
    {}, {},
    {}, {},
    {}, {},
    {}, {},
    {}, {},
    {}, {},
    {}, {},
    {}, {},
    {}, {},
    {}, {},
    {}, {},
    {}, {},
    {}, {},
    {}, {},
    {}, {},
    {}, {},
    {}, {},

  % k = 19
    {}, {},
    {}, {},
    {}, {},
    {}, {},
    {}, {},
    {}, {},
    {}, {},
    {}, {},
    {}, {},
    {}, {},
    {}, {},
    {}, {},
    {}, {},
    {}, {},
    {}, {},
    {}, {},
    {}, {},
    {}, {},
    {}, {},
    {}, {},
    {}, {},
    {}, {},
    {}, {},
    {}, {},
    {}, {},

  % k = 20
    {}, {},
    {}, {},
    {}, {},
    {}, {},
    {}, {},
    {}, {},
    {}, {},
    {}, {},
    {}, {},
    {}, {},
    {}, {},
    {}, {},
    {}, {},
    {}, {},
    {}, {},
    {}, {},
    {}, {},
    {}, {},
    {}, {},
    {}, {},
    {}, {},
    {}, {},
    {}, {},
    {}, {},
    {}, {},

  % k = 21
    {}, {},
    {}, {},
    {}, {},
    {}, {},
    {}, {},
    {}, {},
    {}, {},
    {}, {},
    {}, {},
    {}, {},
    {}, {},
    {}, {},
    {}, {},
    {}, {},
    {}, {},
    {}, {},
    {}, {},
    {}, {},
    {}, {},
    {}, {},
    {}, {},
    {}, {},
    {}, {},
    {}, {},
    {}, {},

  % k = 22
    {}, {},
    {}, {},
    {}, {},
    {}, {},
    {}, {},
    {}, {},
    {}, {},
    {}, {},
    {}, {},
    {}, {},
    {}, {},
    {}, {},
    {}, {},
    {}, {},
    {}, {},
    {}, {},
    {}, {},
    {}, {},
    {}, {},
    {}, {},
    {}, {},
    {}, {},
    {}, {},
    {}, {},
    {}, {},

  % k = 23
    {}, {},
    {}, {},
    {}, {},
    {}, {},
    {}, {},
    {}, {},
    {}, {},
    {}, {},
    {}, {},
    {}, {},
    {}, {},
    {}, {},
    {}, {},
    {}, {},
    {}, {},
    {}, {},
    {}, {},
    {}, {},
    {}, {},
    {}, {},
    {}, {},
    {}, {},
    {}, {},
    {}, {},
    {}, {},

  % k = 24
    {}, {},
    {}, {},
    {}, {},
    {}, {},
    {}, {},
    {}, {},
    {}, {},
    {}, {},
    {}, {},
    {}, {},
    {}, {},
    {}, {},
    {}, {},
    {}, {},
    {}, {},
    {}, {},
    {}, {},
    {}, {},
    {}, {},
    {}, {},
    {}, {},
    {}, {},
    {}, {},
    {}, {},
    {}, {},

  % k = 25
    {}, {},
    {}, {},
    {}, {},
    {}, {},
    {}, {},
    {}, {},
    {}, {},
    {}, {},
    {}, {},
    {}, {},
    {}, {},
    {}, {},
    {}, {},
    {}, {},
    {}, {},
    {}, {},
    {}, {},
    {}, {},
    {}, {},
    {}, {},
    {}, {},
    {}, {},
    {}, {},
    {}, {},
    {}, {}
]);
col_d_dfa = array3d(1..25, 1..25, 1..2, [
  % k = 1
    1, 2,
    3, 20,
    3, 4,
    20, 5,
    20, 6,
    20, 7,
    8, 20,
    8, 9,
    20, 10,
    20, 11,
    20, 12,
    20, 13,
    20, 14,
    20, 15,
    20, 16,
    17, 20,
    17, 18,
    20, 19,
    19, 20,
    20, 20,
    0, 0,
    0, 0,
    0, 0,
    0, 0,
    0, 0,

  % k = 2
    1, 2,
    18, 3,
    4, 18,
    4, 5,
    6, 18,
    6, 7,
    18, 8,
    18, 9,
    18, 10,
    11, 18,
    11, 12,
    13, 18,
    13, 14,
    15, 18,
    15, 16,
    18, 17,
    17, 18,
    18, 18,
    0, 0,
    0, 0,
    0, 0,
    0, 0,
    0, 0,
    0, 0,
    0, 0,

  % k = 3
    1, 2,
    3, 25,
    3, 4,
    5, 25,
    5, 6,
    25, 7,
    25, 8,
    25, 9,
    25, 10,
    11, 25,
    11, 12,
    25, 13,
    25, 14,
    15, 25,
    15, 16,
    25, 17,
    18, 25,
    18, 19,
    20, 25,
    20, 21,
    25, 22,
    23, 25,
    23, 24,
    24, 25,
    25, 25,

  % k = 4
    1, 2,
    3, 17,
    3, 4,
    17, 5,
    6, 17,
    6, 7,
    8, 17,
    8, 9,
    17, 10,
    17, 11,
    17, 12,
    13, 17,
    13, 14,
    15, 17,
    15, 16,
    16, 17,
    17, 17,
    0, 0,
    0, 0,
    0, 0,
    0, 0,
    0, 0,
    0, 0,
    0, 0,
    0, 0,

  % k = 5
    1, 2,
    21, 3,
    4, 21,
    4, 5,
    6, 21,
    6, 7,
    21, 8,
    21, 9,
    21, 10,
    11, 21,
    11, 12,
    13, 21,
    13, 14,
    15, 21,
    15, 16,
    21, 17,
    21, 18,
    19, 21,
    19, 20,
    20, 21,
    21, 21,
    0, 0,
    0, 0,
    0, 0,
    0, 0,

  % k = 6
    1, 2,
    21, 3,
    4, 21,
    4, 5,
    21, 6,
    21, 7,
    8, 21,
    8, 9,
    21, 10,
    11, 21,
    11, 12,
    21, 13,
    14, 21,
    14, 15,
    21, 16,
    21, 17,
    18, 21,
    18, 19,
    21, 20,
    20, 21,
    21, 21,
    0, 0,
    0, 0,
    0, 0,
    0, 0,

  % k = 7
    1, 2,
    3, 20,
    3, 4,
    5, 20,
    5, 6,
    7, 20,
    7, 8,
    20, 9,
    20, 10,
    20, 11,
    20, 12,
    13, 20,
    13, 14,
    20, 15,
    16, 20,
    16, 17,
    18, 20,
    18, 19,
    19, 20,
    20, 20,
    0, 0,
    0, 0,
    0, 0,
    0, 0,
    0, 0,

  % k = 8
    1, 2,
    3, 19,
    3, 4,
    5, 19,
    5, 6,
    19, 7,
    8, 19,
    8, 9,
    19, 10,
    11, 19,
    11, 12,
    13, 19,
    13, 14,
    19, 15,
    19, 16,
    19, 17,
    19, 18,
    18, 19,
    19, 19,
    0, 0,
    0, 0,
    0, 0,
    0, 0,
    0, 0,
    0, 0,

  % k = 9
    1, 2,
    3, 21,
    3, 4,
    21, 5,
    21, 6,
    7, 21,
    7, 8,
    21, 9,
    21, 10,
    11, 21,
    11, 12,
    21, 13,
    14, 21,
    14, 15,
    21, 16,
    21, 17,
    21, 18,
    19, 21,
    19, 20,
    20, 21,
    21, 21,
    0, 0,
    0, 0,
    0, 0,
    0, 0,

  % k = 10
    1, 2,
    3, 21,
    3, 4,
    21, 5,
    21, 6,
    21, 7,
    8, 21,
    8, 9,
    10, 21,
    10, 11,
    21, 12,
    21, 13,
    21, 14,
    15, 21,
    15, 16,
    17, 21,
    17, 18,
    19, 21,
    19, 20,
    20, 21,
    21, 21,
    0, 0,
    0, 0,
    0, 0,
    0, 0,

  % k = 11
    1, 2,
    3, 17,
    3, 4,
    5, 17,
    5, 6,
    17, 7,
    17, 8,
    9, 17,
    9, 10,
    11, 17,
    11, 12,
    17, 13,
    17, 14,
    15, 17,
    15, 16,
    16, 17,
    17, 17,
    0, 0,
    0, 0,
    0, 0,
    0, 0,
    0, 0,
    0, 0,
    0, 0,
    0, 0,

  % k = 12
    1, 2,
    18, 3,
    18, 4,
    18, 5,
    6, 18,
    6, 7,
    18, 8,
    9, 18,
    9, 10,
    11, 18,
    11, 12,
    18, 13,
    14, 18,
    14, 15,
    16, 18,
    16, 17,
    17, 18,
    18, 18,
    0, 0,
    0, 0,
    0, 0,
    0, 0,
    0, 0,
    0, 0,
    0, 0,

  % k = 13
    1, 2,
    20, 3,
    4, 20,
    4, 5,
    20, 6,
    7, 20,
    7, 8,
    9, 20,
    9, 10,
    11, 20,
    11, 12,
    13, 20,
    13, 14,
    20, 15,
    20, 16,
    17, 20,
    17, 18,
    20, 19,
    19, 20,
    20, 20,
    0, 0,
    0, 0,
    0, 0,
    0, 0,
    0, 0,

  % k = 14
    1, 2,
    3, 21,
    3, 4,
    21, 5,
    6, 21,
    6, 7,
    8, 21,
    8, 9,
    10, 21,
    10, 11,
    21, 12,
    13, 21,
    13, 14,
    15, 21,
    15, 16,
    17, 21,
    17, 18,
    19, 21,
    19, 20,
    20, 21,
    21, 21,
    0, 0,
    0, 0,
    0, 0,
    0, 0,

  % k = 15
    1, 2,
    21, 3,
    4, 21,
    4, 5,
    21, 6,
    7, 21,
    7, 8,
    21, 9,
    21, 10,
    21, 11,
    21, 12,
    21, 13,
    14, 21,
    14, 15,
    21, 16,
    17, 21,
    17, 18,
    19, 21,
    19, 20,
    20, 21,
    21, 21,
    0, 0,
    0, 0,
    0, 0,
    0, 0,

  % k = 16
    1, 2,
    3, 23,
    3, 4,
    23, 5,
    23, 6,
    23, 7,
    23, 8,
    9, 23,
    9, 10,
    11, 23,
    11, 12,
    13, 23,
    13, 14,
    15, 23,
    15, 16,
    23, 17,
    18, 23,
    18, 19,
    23, 20,
    21, 23,
    21, 22,
    22, 23,
    23, 23,
    0, 0,
    0, 0,

  % k = 17
    1, 2,
    23, 3,
    4, 23,
    4, 5,
    23, 6,
    7, 23,
    7, 8,
    23, 9,
    10, 23,
    10, 11,
    23, 12,
    23, 13,
    14, 23,
    14, 15,
    23, 16,
    23, 17,
    18, 23,
    18, 19,
    20, 23,
    20, 21,
    23, 22,
    22, 23,
    23, 23,
    0, 0,
    0, 0,

  % k = 18
    1, 2,
    3, 21,
    3, 4,
    5, 21,
    5, 6,
    7, 21,
    7, 8,
    9, 21,
    9, 10,
    21, 11,
    12, 21,
    12, 13,
    14, 21,
    14, 15,
    21, 16,
    17, 21,
    17, 18,
    21, 19,
    21, 20,
    20, 21,
    21, 21,
    0, 0,
    0, 0,
    0, 0,
    0, 0,

  % k = 19
    1, 2,
    25, 3,
    25, 4,
    5, 25,
    5, 6,
    25, 7,
    25, 8,
    25, 9,
    10, 25,
    10, 11,
    12, 25,
    12, 13,
    25, 14,
    25, 15,
    25, 16,
    17, 25,
    17, 18,
    25, 19,
    25, 20,
    25, 21,
    22, 25,
    22, 23,
    25, 24,
    24, 25,
    25, 25,

  % k = 20
    1, 2,
    21, 3,
    4, 21,
    4, 5,
    6, 21,
    6, 7,
    21, 8,
    21, 9,
    21, 10,
    21, 11,
    12, 21,
    12, 13,
    21, 14,
    15, 21,
    15, 16,
    17, 21,
    17, 18,
    19, 21,
    19, 20,
    20, 21,
    21, 21,
    0, 0,
    0, 0,
    0, 0,
    0, 0,

  % k = 21
    1, 2,
    25, 3,
    4, 25,
    4, 5,
    25, 6,
    25, 7,
    25, 8,
    25, 9,
    10, 25,
    10, 11,
    25, 12,
    13, 25,
    13, 14,
    25, 15,
    16, 25,
    16, 17,
    25, 18,
    25, 19,
    25, 20,
    25, 21,
    22, 25,
    22, 23,
    25, 24,
    24, 25,
    25, 25,

  % k = 22
    1, 2,
    3, 21,
    3, 4,
    5, 21,
    5, 6,
    21, 7,
    21, 8,
    9, 21,
    9, 10,
    21, 11,
    12, 21,
    12, 13,
    21, 14,
    15, 21,
    15, 16,
    21, 17,
    18, 21,
    18, 19,
    21, 20,
    20, 21,
    21, 21,
    0, 0,
    0, 0,
    0, 0,
    0, 0,

  % k = 23
    1, 2,
    22, 3,
    4, 22,
    4, 5,
    22, 6,
    22, 7,
    22, 8,
    22, 9,
    10, 22,
    10, 11,
    12, 22,
    12, 13,
    14, 22,
    14, 15,
    22, 16,
    22, 17,
    18, 22,
    18, 19,
    20, 22,
    20, 21,
    21, 22,
    22, 22,
    0, 0,
    0, 0,
    0, 0,

  % k = 24
    1, 2,
    17, 3,
    4, 17,
    4, 5,
    6, 17,
    6, 7,
    17, 8,
    9, 17,
    9, 10,
    17, 11,
    12, 17,
    12, 13,
    14, 17,
    14, 15,
    17, 16,
    16, 17,
    17, 17,
    0, 0,
    0, 0,
    0, 0,
    0, 0,
    0, 0,
    0, 0,
    0, 0,
    0, 0,

  % k = 25
    1, 2,
    3, 22,
    3, 4,
    22, 5,
    22, 6,
    7, 22,
    7, 8,
    22, 9,
    10, 22,
    10, 11,
    22, 12,
    22, 13,
    14, 22,
    14, 15,
    16, 22,
    16, 17,
    18, 22,
    18, 19,
    22, 20,
    22, 21,
    21, 22,
    22, 22,
    0, 0,
    0, 0,
    0, 0
]);
col_d_nfa = array3d(1..25, 1..25, 1..2, [
  % k = 1
    {}, {},
    {}, {},
    {}, {},
    {}, {},
    {}, {},
    {}, {},
    {}, {},
    {}, {},
    {}, {},
    {}, {},
    {}, {},
    {}, {},
    {}, {},
    {}, {},
    {}, {},
    {}, {},
    {}, {},
    {}, {},
    {}, {},
    {}, {},
    {}, {},
    {}, {},
    {}, {},
    {}, {},
    {}, {},

  % k = 2
    {}, {},
    {}, {},
    {}, {},
    {}, {},
    {}, {},
    {}, {},
    {}, {},
    {}, {},
    {}, {},
    {}, {},
    {}, {},
    {}, {},
    {}, {},
    {}, {},
    {}, {},
    {}, {},
    {}, {},
    {}, {},
    {}, {},
    {}, {},
    {}, {},
    {}, {},
    {}, {},
    {}, {},
    {}, {},

  % k = 3
    {}, {},
    {}, {},
    {}, {},
    {}, {},
    {}, {},
    {}, {},
    {}, {},
    {}, {},
    {}, {},
    {}, {},
    {}, {},
    {}, {},
    {}, {},
    {}, {},
    {}, {},
    {}, {},
    {}, {},
    {}, {},
    {}, {},
    {}, {},
    {}, {},
    {}, {},
    {}, {},
    {}, {},
    {}, {},

  % k = 4
    {}, {},
    {}, {},
    {}, {},
    {}, {},
    {}, {},
    {}, {},
    {}, {},
    {}, {},
    {}, {},
    {}, {},
    {}, {},
    {}, {},
    {}, {},
    {}, {},
    {}, {},
    {}, {},
    {}, {},
    {}, {},
    {}, {},
    {}, {},
    {}, {},
    {}, {},
    {}, {},
    {}, {},
    {}, {},

  % k = 5
    {}, {},
    {}, {},
    {}, {},
    {}, {},
    {}, {},
    {}, {},
    {}, {},
    {}, {},
    {}, {},
    {}, {},
    {}, {},
    {}, {},
    {}, {},
    {}, {},
    {}, {},
    {}, {},
    {}, {},
    {}, {},
    {}, {},
    {}, {},
    {}, {},
    {}, {},
    {}, {},
    {}, {},
    {}, {},

  % k = 6
    {}, {},
    {}, {},
    {}, {},
    {}, {},
    {}, {},
    {}, {},
    {}, {},
    {}, {},
    {}, {},
    {}, {},
    {}, {},
    {}, {},
    {}, {},
    {}, {},
    {}, {},
    {}, {},
    {}, {},
    {}, {},
    {}, {},
    {}, {},
    {}, {},
    {}, {},
    {}, {},
    {}, {},
    {}, {},

  % k = 7
    {}, {},
    {}, {},
    {}, {},
    {}, {},
    {}, {},
    {}, {},
    {}, {},
    {}, {},
    {}, {},
    {}, {},
    {}, {},
    {}, {},
    {}, {},
    {}, {},
    {}, {},
    {}, {},
    {}, {},
    {}, {},
    {}, {},
    {}, {},
    {}, {},
    {}, {},
    {}, {},
    {}, {},
    {}, {},

  % k = 8
    {}, {},
    {}, {},
    {}, {},
    {}, {},
    {}, {},
    {}, {},
    {}, {},
    {}, {},
    {}, {},
    {}, {},
    {}, {},
    {}, {},
    {}, {},
    {}, {},
    {}, {},
    {}, {},
    {}, {},
    {}, {},
    {}, {},
    {}, {},
    {}, {},
    {}, {},
    {}, {},
    {}, {},
    {}, {},

  % k = 9
    {}, {},
    {}, {},
    {}, {},
    {}, {},
    {}, {},
    {}, {},
    {}, {},
    {}, {},
    {}, {},
    {}, {},
    {}, {},
    {}, {},
    {}, {},
    {}, {},
    {}, {},
    {}, {},
    {}, {},
    {}, {},
    {}, {},
    {}, {},
    {}, {},
    {}, {},
    {}, {},
    {}, {},
    {}, {},

  % k = 10
    {}, {},
    {}, {},
    {}, {},
    {}, {},
    {}, {},
    {}, {},
    {}, {},
    {}, {},
    {}, {},
    {}, {},
    {}, {},
    {}, {},
    {}, {},
    {}, {},
    {}, {},
    {}, {},
    {}, {},
    {}, {},
    {}, {},
    {}, {},
    {}, {},
    {}, {},
    {}, {},
    {}, {},
    {}, {},

  % k = 11
    {}, {},
    {}, {},
    {}, {},
    {}, {},
    {}, {},
    {}, {},
    {}, {},
    {}, {},
    {}, {},
    {}, {},
    {}, {},
    {}, {},
    {}, {},
    {}, {},
    {}, {},
    {}, {},
    {}, {},
    {}, {},
    {}, {},
    {}, {},
    {}, {},
    {}, {},
    {}, {},
    {}, {},
    {}, {},

  % k = 12
    {}, {},
    {}, {},
    {}, {},
    {}, {},
    {}, {},
    {}, {},
    {}, {},
    {}, {},
    {}, {},
    {}, {},
    {}, {},
    {}, {},
    {}, {},
    {}, {},
    {}, {},
    {}, {},
    {}, {},
    {}, {},
    {}, {},
    {}, {},
    {}, {},
    {}, {},
    {}, {},
    {}, {},
    {}, {},

  % k = 13
    {}, {},
    {}, {},
    {}, {},
    {}, {},
    {}, {},
    {}, {},
    {}, {},
    {}, {},
    {}, {},
    {}, {},
    {}, {},
    {}, {},
    {}, {},
    {}, {},
    {}, {},
    {}, {},
    {}, {},
    {}, {},
    {}, {},
    {}, {},
    {}, {},
    {}, {},
    {}, {},
    {}, {},
    {}, {},

  % k = 14
    {}, {},
    {}, {},
    {}, {},
    {}, {},
    {}, {},
    {}, {},
    {}, {},
    {}, {},
    {}, {},
    {}, {},
    {}, {},
    {}, {},
    {}, {},
    {}, {},
    {}, {},
    {}, {},
    {}, {},
    {}, {},
    {}, {},
    {}, {},
    {}, {},
    {}, {},
    {}, {},
    {}, {},
    {}, {},

  % k = 15
    {}, {},
    {}, {},
    {}, {},
    {}, {},
    {}, {},
    {}, {},
    {}, {},
    {}, {},
    {}, {},
    {}, {},
    {}, {},
    {}, {},
    {}, {},
    {}, {},
    {}, {},
    {}, {},
    {}, {},
    {}, {},
    {}, {},
    {}, {},
    {}, {},
    {}, {},
    {}, {},
    {}, {},
    {}, {},

  % k = 16
    {}, {},
    {}, {},
    {}, {},
    {}, {},
    {}, {},
    {}, {},
    {}, {},
    {}, {},
    {}, {},
    {}, {},
    {}, {},
    {}, {},
    {}, {},
    {}, {},
    {}, {},
    {}, {},
    {}, {},
    {}, {},
    {}, {},
    {}, {},
    {}, {},
    {}, {},
    {}, {},
    {}, {},
    {}, {},

  % k = 17
    {}, {},
    {}, {},
    {}, {},
    {}, {},
    {}, {},
    {}, {},
    {}, {},
    {}, {},
    {}, {},
    {}, {},
    {}, {},
    {}, {},
    {}, {},
    {}, {},
    {}, {},
    {}, {},
    {}, {},
    {}, {},
    {}, {},
    {}, {},
    {}, {},
    {}, {},
    {}, {},
    {}, {},
    {}, {},

  % k = 18
    {}, {},
    {}, {},
    {}, {},
    {}, {},
    {}, {},
    {}, {},
    {}, {},
    {}, {},
    {}, {},
    {}, {},
    {}, {},
    {}, {},
    {}, {},
    {}, {},
    {}, {},
    {}, {},
    {}, {},
    {}, {},
    {}, {},
    {}, {},
    {}, {},
    {}, {},
    {}, {},
    {}, {},
    {}, {},

  % k = 19
    {}, {},
    {}, {},
    {}, {},
    {}, {},
    {}, {},
    {}, {},
    {}, {},
    {}, {},
    {}, {},
    {}, {},
    {}, {},
    {}, {},
    {}, {},
    {}, {},
    {}, {},
    {}, {},
    {}, {},
    {}, {},
    {}, {},
    {}, {},
    {}, {},
    {}, {},
    {}, {},
    {}, {},
    {}, {},

  % k = 20
    {}, {},
    {}, {},
    {}, {},
    {}, {},
    {}, {},
    {}, {},
    {}, {},
    {}, {},
    {}, {},
    {}, {},
    {}, {},
    {}, {},
    {}, {},
    {}, {},
    {}, {},
    {}, {},
    {}, {},
    {}, {},
    {}, {},
    {}, {},
    {}, {},
    {}, {},
    {}, {},
    {}, {},
    {}, {},

  % k = 21
    {}, {},
    {}, {},
    {}, {},
    {}, {},
    {}, {},
    {}, {},
    {}, {},
    {}, {},
    {}, {},
    {}, {},
    {}, {},
    {}, {},
    {}, {},
    {}, {},
    {}, {},
    {}, {},
    {}, {},
    {}, {},
    {}, {},
    {}, {},
    {}, {},
    {}, {},
    {}, {},
    {}, {},
    {}, {},

  % k = 22
    {}, {},
    {}, {},
    {}, {},
    {}, {},
    {}, {},
    {}, {},
    {}, {},
    {}, {},
    {}, {},
    {}, {},
    {}, {},
    {}, {},
    {}, {},
    {}, {},
    {}, {},
    {}, {},
    {}, {},
    {}, {},
    {}, {},
    {}, {},
    {}, {},
    {}, {},
    {}, {},
    {}, {},
    {}, {},

  % k = 23
    {}, {},
    {}, {},
    {}, {},
    {}, {},
    {}, {},
    {}, {},
    {}, {},
    {}, {},
    {}, {},
    {}, {},
    {}, {},
    {}, {},
    {}, {},
    {}, {},
    {}, {},
    {}, {},
    {}, {},
    {}, {},
    {}, {},
    {}, {},
    {}, {},
    {}, {},
    {}, {},
    {}, {},
    {}, {},

  % k = 24
    {}, {},
    {}, {},
    {}, {},
    {}, {},
    {}, {},
    {}, {},
    {}, {},
    {}, {},
    {}, {},
    {}, {},
    {}, {},
    {}, {},
    {}, {},
    {}, {},
    {}, {},
    {}, {},
    {}, {},
    {}, {},
    {}, {},
    {}, {},
    {}, {},
    {}, {},
    {}, {},
    {}, {},
    {}, {},

  % k = 25
    {}, {},
    {}, {},
    {}, {},
    {}, {},
    {}, {},
    {}, {},
    {}, {},
    {}, {},
    {}, {},
    {}, {},
    {}, {},
    {}, {},
    {}, {},
    {}, {},
    {}, {},
    {}, {},
    {}, {},
    {}, {},
    {}, {},
    {}, {},
    {}, {},
    {}, {},
    {}, {},
    {}, {},
    {}, {}
]);
